
Log started (V12.10.0.0) Tue Apr 20 03:36:55 2021

Warning, line 3189: Name 's58' does not exist.

Problem 'asset.lp' read.
Read time = 0.01 sec. (0.27 ticks)
New value for default parallel thread count: 1
New value for time limit in seconds: 250
Version identifier: 12.10.0.0 | 2019-11-26 | 843d4de
CPXPARAM_Threads                                 1
CPXPARAM_TimeLimit                               250
Found incumbent of value 0.000000 after 0.00 sec. (0.07 ticks)
Tried aggregator 3 times.
MIP Presolve eliminated 1070 rows and 51 columns.
MIP Presolve modified 1883 coefficients.
Aggregator did 698 substitutions.
Reduced MIP has 1048 rows, 1157 columns, and 4805 nonzeros.
Reduced MIP has 938 binaries, 177 generals, 0 SOSs, and 0 indicators.
Presolve time = 0.01 sec. (10.61 ticks)
Probing fixed 251 vars, tightened 74 bounds.
Probing time = 0.01 sec. (3.76 ticks)
Cover probing fixed 0 vars, tightened 143 bounds.
Tried aggregator 2 times.
MIP Presolve eliminated 451 rows and 411 columns.
MIP Presolve modified 249 coefficients.
Aggregator did 3 substitutions.
Reduced MIP has 594 rows, 743 columns, and 2510 nonzeros.
Reduced MIP has 601 binaries, 103 generals, 0 SOSs, and 0 indicators.
Presolve time = 0.01 sec. (4.90 ticks)
Probing time = 0.00 sec. (1.62 ticks)
Tried aggregator 2 times.
Detecting symmetries...
MIP Presolve eliminated 6 rows and 6 columns.
MIP Presolve modified 280 coefficients.
Aggregator did 1 substitutions.
Reduced MIP has 587 rows, 736 columns, and 2496 nonzeros.
Reduced MIP has 595 binaries, 103 generals, 0 SOSs, and 0 indicators.
Presolve time = 0.00 sec. (2.57 ticks)
Probing time = 0.00 sec. (1.60 ticks)
Clique table members: 1608.
MIP emphasis: balance optimality and feasibility.
MIP search method: dynamic search.
Parallel mode: none, using 1 thread.
Root relaxation solution time = 0.01 sec. (6.61 ticks)

        Nodes                                         Cuts/
   Node  Left     Objective  IInf  Best Integer    Best Bound    ItCnt     Gap

*     0+    0                            0.0000      580.0000              --- 
      0     0      350.0000   124        0.0000      350.0000      388     --- 
      0     0      343.5614   124        0.0000     Cuts: 246      606     --- 
      0     0      337.2490   124        0.0000     Cuts: 150      855     --- 
      0     0      335.8253   124        0.0000      Cuts: 96      966     --- 
      0     0      335.3571   124        0.0000      Cuts: 71     1055     --- 
      0     0      335.0000   124        0.0000      Cuts: 80     1166     --- 
Detecting symmetries...
      0     0      335.0000   124        0.0000      Cuts: 83     1276     --- 
      0     0      335.0000   124        0.0000      Cuts: 35     1428     --- 
*     0+    0                          280.0000      335.0000            19.64%
      0     0      334.9885   124      280.0000      Cuts: 90     1542   19.64%
Detecting symmetries...
      0     2      334.9885   155      280.0000      334.9885     1542   19.64%
Elapsed time = 0.21 sec. (193.92 ticks, tree = 0.01 MB, solutions = 1)
*   140+  123                          285.0000      333.2692            16.94%
    209   190      317.4775    88      285.0000      333.0892     6743   16.87%
*   320+  279                          290.0000      332.8964            14.79%
*   330+  268                          295.0000      332.8964            12.85%
    470   396      322.9746    87      295.0000      332.8788    13096   12.84%
    725   631      307.5000    45      295.0000      332.5460    19441   12.73%
*   987   651      integral     0      305.0000      332.4659    25520    9.01%
   1000   663      316.4393    94      305.0000      332.4164    25888    8.99%

Performing restart 1

Repeating presolve.
Tried aggregator 1 time.
MIP Presolve modified 455 coefficients.
Reduced MIP has 587 rows, 736 columns, and 2223 nonzeros.
Reduced MIP has 595 binaries, 103 generals, 0 SOSs, and 0 indicators.
Presolve time = 0.00 sec. (2.23 ticks)
Tried aggregator 2 times.
MIP Presolve modified 5 coefficients.
Aggregator did 1 substitutions.
Reduced MIP has 586 rows, 735 columns, and 2221 nonzeros.
Reduced MIP has 594 binaries, 103 generals, 0 SOSs, and 0 indicators.
Presolve time = 0.00 sec. (2.52 ticks)
Represolve time = 0.02 sec. (11.61 ticks)
   1097     0      332.3721   151      305.0000     Cuts: 185    29948    8.91%
   1097     0      330.8448   151      305.0000     Cuts: 160    30092    8.47%
   1097     0      329.7171   151      305.0000     Cuts: 127    30255    8.10%
   1097     0      327.3036   151      305.0000     Cuts: 165    30524    7.31%
   1097     0      326.5130   151      305.0000     Cuts: 139    30648    7.05%
   1097     0      326.2419   151      305.0000      Cuts: 90    30734    6.96%
   1097     0      326.0684   151      305.0000      Cuts: 94    30795    6.91%
   1097     0      325.9209   151      305.0000      Cuts: 88    30859    6.86%
   1097     0      325.7893   151      305.0000      Cuts: 79    30917    6.82%
   1097     0      325.4632   151      305.0000      Cuts: 80    30992    6.71%
   1097     0      325.2168   151      305.0000      Cuts: 44    31056    6.63%
   1097     0      325.0448   151      305.0000      Cuts: 74    31115    6.57%
   1097     0      324.7272   151      305.0000      Cuts: 64    31192    6.47%
   1097     0      324.3944   151      305.0000      Cuts: 78    31250    6.36%
   1097     0      324.3598   151      305.0000      Cuts: 66    31298    6.35%
   1097     0      324.3206   151      305.0000      Cuts: 50    31339    6.33%
   1097     0      324.2697   151      305.0000      Cuts: 33    31380    6.32%
   1097     0      324.2215   151      305.0000      Cuts: 29    31415    6.30%
   1097     0      324.1818   151      305.0000      Cuts: 31    31444    6.29%
   1097     0      323.8823   151      305.0000      Cuts: 37    31495    6.19%
   1097     0      323.7196   151      305.0000      Cuts: 77    31560    6.14%
   1097     0      323.7028   151      305.0000      Cuts: 53    31599    6.13%
   1097     0      323.6274   151      305.0000      Cuts: 33    31651    6.11%
   1097     0      323.5624   151      305.0000      Cuts: 13    31684    6.09%
   1097     0      323.5368   151      305.0000      Cuts: 59    31725    6.08%
   1097     0      323.5351   151      305.0000      Cuts: 36    31745    6.08%
   1097     0      323.5235   151      305.0000      Cuts: 21    31767    6.07%
   1097     2      323.5235   173      305.0000      323.5228    31767    6.07%
   1102     7      319.5310   120      305.0000      322.2223    32190    5.65%
   1110    11      321.0790   132      305.0000      321.9382    32936    5.55%
   1145    36      312.2543    95      305.0000      321.8801    34811    5.53%
   1209    74      317.1728   100      305.0000      320.5696    37723    5.10%
*  1330    54      integral     0      310.0000      318.3629    43942    2.70%

GUB cover cuts applied:  6
Clique cuts applied:  103
Cover cuts applied:  10
Implied bound cuts applied:  39
Flow cuts applied:  2
Mixed integer rounding cuts applied:  67
Zero-half cuts applied:  63
Lift and project cuts applied:  16
Gomory fractional cuts applied:  9

Root node processing (before b&c):
  Real time             =    0.21 sec. (194.03 ticks)
Sequential b&c:
  Real time             =    4.02 sec. (4273.66 ticks)
                          ------------
Total (root+branch&cut) =    4.23 sec. (4467.69 ticks)

Solution pool: 7 solutions saved.

MIP - Integer optimal solution:  Objective =  3.1000000000e+02
Solution time =    4.23 sec.  Iterations = 47758  Nodes = 1426
Deterministic time = 4467.70 ticks  (1056.37 ticks/sec)


Incumbent solution
Variable Name           Solution Value
F                           310.000000
y22                           1.000000
y228                          1.000000
y196                          1.000000
y112                          1.000000
y150                          1.000000
y28                           1.000000
y224                          1.000000
y168                          1.000000
y197                          1.000000
y176                          1.000000
y54                           1.000000
y80                           1.000000
y217                          1.000000
y221                          1.000000
y138                          1.000000
y61                           1.000000
y75                           1.000000
y144                          1.000000
y231                          1.000000
y139                          1.000000
y216                          1.000000
x262x228x1                    1.000000
x268x112x1                   -0.000000
x268x150x1                    1.000000
x268x28x1                     1.000000
x268x15x1                     0.000000
x70x228x1                     1.000000
x79x112x1                     2.000000
x79x15x1                     -0.000000
x226x176x1                    0.000000
x226x54x1                     1.000000
x226x80x1                     1.000000
x230x80x1                     1.000000
x59x22x2                      1.000000
x59x196x2                    -0.000000
x59x15x2                      0.000000
x59x224x2                     1.000000
x64x224x2                     1.000000
x89x196x2                     1.000000
x89x15x2                     -0.000000
x89x221x2                     1.000000
x89x61x2                      0.000000
x254x22x2                    -0.000000
x254x221x2                    1.000000
x84x168x2                     1.000000
x84x75x2                      1.000000
x134x54x2                     1.000000
x134x221x2                    0.000000
x214x150x3                    1.000000
x214x28x3                     1.000000
x70x22x3                      0.000000
x70x196x3                     1.000000
x64x22x3                      1.000000
x254x22x3                    -0.000000
x254x196x3                    0.000000
x254x197x3                    1.000000
x134x168x3                    1.000000
x7x217x3                      2.000000
x230x197x3                    1.000000
x205x61x1                    -0.000000
x205x75x1                     0.000000
x22x0x2                      -0.000000
x22x139x2                     1.000000
x22x139x3                     1.000000
x228x176x1                    2.000000
x196x61x2                     1.000000
x196x144x2                    0.000000
x196x139x2                    0.000000
x196x216x2                   -0.000000
x196x0x3                      1.000000
x112x61x1                     0.000000
x112x75x1                     1.000000
x112x216x1                    1.000000
x150x61x1                     1.000000
x150x138x3                    1.000000
x28x231x1                     1.000000
x28x138x3                     1.000000
x15x221x2                     0.000000
x15x61x2                     -0.000000
x224x231x2                    1.000000
x224x216x2                    1.000000
x168x0x2                      1.000000
x168x0x3                      1.000000
x197x0x3                      2.000000
x176x0x1                      2.000000
x54x0x1                       1.000000
x54x0x2                       1.000000
x80x0x1                       2.000000
x217x0x3                      2.000000
x221x0x2                      0.000000
x221x144x2                    2.000000
x138x0x3                      2.000000
x61x0x1                       1.000000
x61x0x2                       1.000000
x61x139x2                    -0.000000
x61x216x2                     0.000000
x75x0x1                       1.000000
x75x0x2                       1.000000
x144x0x2                      2.000000
x231x0x1                      1.000000
x231x0x2                      1.000000
x139x0x2                      1.000000
x139x0x3                      1.000000
x216x0x1                      1.000000
x216x0x2                      1.000000
s214                          5.875442
s172                          8.065827
z214z172z3                    1.000000
s22                           7.877936
s196                          8.039250
s5                            7.190000
s143                          7.200000
s120                          7.220000
s133                          7.875863
s39                           7.866600
z214z39z3                     1.000000
s150                          7.920159
z214z150z3                    1.000000
s2                            7.829908
z214z2z3                      1.000000
s28                           7.946579
z214z28z3                     1.000000
s233                          7.390000
s8                            7.915200
z214z8z3                      1.000000
s74                           8.529770
s72                           8.620000
z214z72z3                     1.000000
s168                          8.671217
s197                          8.695033
z214z197z3                    1.000000
s115                          7.780000
s171                          7.806966
s41                           7.950000
s175                          8.131362
z214z175z3                    1.000000
s130                          9.070000
z214z130z3                    1.000000
s217                          9.110000
z214z217z3                    1.000000
s138                          9.200000
z214z138z3                    1.000000
s139                          9.490000
s262                          6.305292
s205                          7.831764
s228                          7.859778
z262z228z1                    1.000000
s17                           8.300000
s112                          7.907235
s247                          7.330000
s222                          8.133971
s257                          7.440000
s15                           7.510000
s218                          8.159658
s9                            8.253402
s128                          8.201622
s176                          8.960000
z262z176z1                    1.000000
s54                           8.845802
s80                           8.848667
s189                          9.110000
z262z189z1                    1.000000
s61                           9.210000
s75                           9.260000
s231                          9.420000
s216                          9.490000
s59                           6.308813
z59z22z2                      1.000000
z59z196z2                    -0.000000
z59z15z2                      0.000000
s224                          8.105816
z59z224z2                     1.000000
s246                          7.690000
s213                          8.732175
z59z213z2                     1.000000
s221                          8.252729
z59z221z2                     1.000000
s179                          9.270000
z59z179z2                     1.000000
s144                          9.400000
z59z144z2                     1.000000
s268                          6.400277
z268z205z1                    1.000000
z268z112z1                    1.000000
z268z150z1                    1.000000
z268z28z1                     1.000000
z268z222z1                    1.000000
z268z15z1                     0.000000
z268z218z1                    1.000000
z268z128z1                    1.000000
z268z176z1                    1.000000
z268z80z1                     1.000000
z268z189z1                    1.000000
s70                           6.520317
z70z22z3                      0.000000
z70z228z1                     1.000000
z70z196z3                     1.000000
z70z176z1                     1.000000
z70z189z1                     1.000000
z70z217z3                     1.000000
z70z138z3                     1.000000
s64                           6.527904
z64z22z3                      1.000000
z64z224z2                     1.000000
z64z221z2                     1.000000
z64z138z3                     1.000000
z64z144z2                     1.000000
s89                           6.686131
z89z196z2                     1.000000
z89z15z2                     -0.000000
z89z213z2                     1.000000
z89z221z2                     1.000000
z89z61z2                      0.000000
z89z144z2                     1.000000
s254                          6.837829
z254z22z2                    -0.000000
z254z22z3                    -0.000000
z254z196z3                    0.000000
z254z197z3                    1.000000
z254z221z2                    1.000000
z254z138z3                    1.000000
z254z144z2                    1.000000
s79                           6.714514
z79z112z1                     1.000000
z79z15z1                     -0.000000
z79z9z1                       1.000000
z79z189z1                     1.000000
s226                          7.237214
z226z176z1                    1.000000
z226z54z1                     1.000000
z226z80z1                     1.000000
z226z189z1                    1.000000
s84                           7.267275
z84z168z2                     1.000000
z84z75z2                      1.000000
z84z144z2                     1.000000
s134                          7.305965
z134z168z3                    1.000000
z134z54z2                     1.000000
z134z221z2                    0.000000
z134z138z3                    1.000000
z134z144z2                    1.000000
s7                            7.453316
z7z217z3                      1.000000
s230                          7.360118
z230z197z3                    1.000000
z230z80z1                     1.000000
z230z189z1                    1.000000
z230z138z3                    1.000000
z205z176z1                    1.000000
z205z61z1                    -0.000000
z205z75z1                     0.000000
z22z139z2                     1.000000
z22z139z3                     1.000000
z228z176z1                    1.000000
z196z61z2                     1.000000
z196z144z2                    1.000000
z196z139z2                    0.000000
z196z216z2                   -0.000000
z120z144z2                    1.000000
z133z130z3                    1.000000
z133z217z3                    1.000000
z112z61z1                     0.000000
z112z75z1                     1.000000
z112z216z1                    1.000000
z150z138z3                    1.000000
z150z61z1                     1.000000
z2z130z3                      1.000000
z28z138z3                     1.000000
z28z231z1                     1.000000
z15z221z2                     0.000000
z15z61z2                     -0.000000
z224z144z2                    1.000000
z224z231z2                    1.000000
z224z216z2                    1.000000
z8z138z3                      1.000000
z221z144z2                    1.000000
z61z139z2                    -0.000000
z61z216z2                     0.000000
All other variables in the range 1-1909 are 0.
